1297
0	136	205	230	263	318	333	421	432	449
96	205	253	320	403	432	456	592	691	787
0	73	190	318	403	428	518	639	729	787
67	253	327	421	503	547	639	684	802	868
0	107	190	263	320	421	500	592	691	729
53	283	503	584	672	746	818	909	1008	1099
288	397	584	606	672	706	767	830	909	945
309	490	606	662	706	733	820	1063	1118	1134
354	553	723	812	836	935	1195	1213	1264	1283
427	599	812	882	980	1003	1018	1118	1189	1216
